p cnf 913 2195
a 1 2 3 4 5 6 7 8 9 10 11 12 13 14 15 16 17 19 20 21 22 23 24 25 26 27 28 29 30 31 32 33 34 35 36 37 38 39 40 41 42 43 44 45 46 47 48 49 50 66 67 68 69 70 71 72 73 74 75 76 77 78 79 80 81 82 83 84 85 86 0
e 18 51 52 53 54 55 56 57 58 59 60 61 62 63 64 65 87 88 89 90 91 92 93 94 95 96 97 98 99 100 101 102 103 104 105 106 107 108 109 110 111 112 113 114 115 116 117 118 119 120 121 122 123 124 125 126 127 128 129 130 131 132 133 134 135 136 137 138 139 140 141 142 143 144 145 146 147 148 149 150 151 152 153 154 155 156 157 158 159 160 161 162 163 164 165 166 167 168 169 170 171 172 173 174 175 176 177 178 179 180 181 182 183 184 185 186 187 188 189 190 191 192 193 194 195 196 197 198 199 200 201 202 203 204 205 206 207 208 209 210 211 212 213 214 215 216 217 218 219 220 221 222 223 224 225 226 227 228 229 230 231 232 233 234 235 236 237 238 239 240 241 242 243 244 245 246 247 248 249 250 251 252 253 254 255 256 257 258 259 260 261 262 263 264 265 266 267 268 269 270 271 272 273 274 275 276 277 278 279 280 281 282 283 284 285 286 287 288 289 290 291 292 293 294 295 296 297 298 299 300 301 302 303 304 305 306 307 308 309 310 311 312 313 314 315 316 317 318 319 320 321 322 323 324 325 326 327 328 329 330 331 332 333 334 335 336 337 338 339 340 341 342 343 344 345 346 347 348 349 350 351 352 353 354 355 356 357 358 359 360 361 362 363 364 365 366 367 368 369 370 371 372 373 374 375 376 377 378 379 380 381 382 383 384 385 386 387 388 389 390 391 392 393 394 395 396 397 398 399 400 401 402 403 404 405 406 407 408 409 410 411 412 413 414 415 416 417 418 419 420 421 422 423 424 425 426 427 428 429 430 431 432 433 434 435 436 437 438 439 440 441 442 443 444 445 446 447 448 449 450 451 452 453 454 455 456 457 458 459 460 461 462 463 464 465 466 467 468 469 470 471 472 473 474 475 476 477 478 479 480 481 482 483 484 485 486 487 488 489 490 491 492 493 494 495 496 497 498 499 500 501 502 503 504 505 506 507 508 509 510 511 512 513 514 515 516 517 518 519 520 521 522 523 524 525 526 527 528 529 530 531 532 533 534 535 536 537 538 539 540 541 542 543 544 545 546 547 548 549 550 551 552 553 554 555 556 557 558 559 560 561 562 563 564 565 566 567 568 569 570 571 572 573 574 575 576 577 578 579 580 581 582 583 584 585 586 587 588 589 590 591 592 593 594 595 596 597 598 599 600 601 602 603 604 605 606 607 608 609 610 611 612 613 614 615 616 617 618 619 620 621 622 623 624 625 626 627 628 629 630 631 632 633 634 635 636 637 638 639 640 641 642 643 644 645 646 647 648 649 650 651 652 653 654 655 656 657 658 659 660 661 662 663 664 665 666 667 668 669 670 671 672 673 674 675 676 677 678 679 680 681 682 683 684 685 686 687 688 689 690 691 692 693 694 695 696 697 698 699 700 701 702 703 704 705 706 707 708 709 710 711 712 713 714 715 716 717 718 719 720 721 722 723 724 725 726 727 728 729 730 731 732 733 734 735 736 737 738 739 740 741 742 743 744 745 746 747 748 749 750 751 752 753 754 755 756 757 758 759 760 761 762 763 764 765 766 767 768 769 770 771 772 773 774 775 776 777 778 779 780 781 782 783 784 785 786 787 788 789 790 791 792 793 794 795 796 797 798 799 800 801 802 803 804 805 806 807 808 809 810 811 812 813 814 815 816 817 818 819 820 821 822 823 824 825 826 827 828 829 830 831 832 833 834 835 836 837 838 839 840 841 842 843 844 845 846 847 848 849 850 851 852 853 854 855 856 857 858 859 860 861 862 863 864 865 866 867 868 869 870 871 872 873 874 875 876 877 878 879 880 881 882 883 884 885 886 887 888 889 890 891 892 893 894 895 896 897 898 899 900 901 902 903 904 905 906 907 908 909 910 911 912 913 0
-913 0
913 -747 0
913 -820 0
913 -873 0
913 -912 0
4 3 2 -746 -911 912 0
911 -891 0
911 -910 0
18 54 53 56 55 61 52 51 65 64 63 62 60 59 58 57 -909 910 0
909 -908 0
909 -742 0
909 -816 0
909 -869 0
-447 -446 -445 -444 -907 908 0
907 -896 0
907 -901 0
907 -906 0
38 43 73 77 86 83 44 -905 -474 -496 -904 -903 -902 -473 -493 906 0
905 65 0
905 49 0
904 46 0
904 -65 0
903 65 0
903 10 0
902 -65 0
902 7 0
25 31 30 76 70 85 82 -900 -899 -898 -465 -489 -897 -464 -485 901 0
900 -65 0
900 6 0
899 65 0
899 8 0
898 65 0
898 36 0
897 -65 0
897 33 0
17 16 11 81 67 75 84 -895 -894 -893 -456 -482 -892 -455 -479 896 0
895 65 0
895 9 0
894 -65 0
894 5 0
893 65 0
893 23 0
892 -65 0
892 20 0
-844 -781 -414 -890 -396 891 0
890 -889 0
890 -115 0
890 -116 0
890 -117 0
890 -118 0
-888 -883 -878 889 0
888 -164 0
888 -144 0
888 -884 0
888 -885 0
888 -886 0
888 -167 0
888 -145 0
888 -887 0
888 -86 0
888 -83 0
888 -77 0
888 -73 0
888 -44 0
888 -43 0
888 -38 0
-49 -65 887 0
-46 65 886 0
-10 -65 885 0
-7 65 884 0
883 -156 0
883 -135 0
883 -879 0
883 -160 0
883 -136 0
883 -880 0
883 -881 0
883 -882 0
883 -85 0
883 -82 0
883 -76 0
883 -70 0
883 -31 0
883 -30 0
883 -25 0
-6 65 882 0
-8 -65 881 0
-36 -65 880 0
-33 65 879 0
878 -150 0
878 -126 0
878 -874 0
878 -153 0
878 -127 0
878 -875 0
878 -876 0
878 -877 0
878 -84 0
878 -81 0
878 -75 0
878 -67 0
878 -17 0
878 -16 0
878 -11 0
-9 -65 877 0
-5 65 876 0
-23 -65 875 0
-20 65 874 0
3 2 1 -746 -872 873 0
872 -845 0
872 -871 0
18 54 53 56 55 61 52 51 65 64 63 62 60 59 58 57 -870 871 0
870 -862 0
870 -724 0
870 -808 0
870 -869 0
-868 -865 869 0
868 -866 0
868 -867 0
868 -715 0
868 -716 0
868 -717 0
-447 -446 -445 -444 -498 -804 867 0
-447 -446 -445 -444 -601 -713 866 0
865 -863 0
865 -864 0
865 -730 0
865 -731 0
865 -732 0
-447 -446 -445 -444 -521 -728 864 0
-447 -446 -445 -444 -560 -809 863 0
-447 -446 -445 -444 -861 862 0
861 -850 0
861 -855 0
861 -860 0
39 38 43 40 44 42 41 -859 -858 -580 -579 -468 -467 -857 -856 860 0
859 10 0
859 18 0
858 7 0
858 -18 0
857 49 0
857 18 0
856 46 0
856 -18 0
25 28 31 30 29 27 26 -463 -854 -853 -852 -572 -571 -851 -458 855 0
854 6 0
854 -18 0
853 8 0
853 18 0
852 36 0
852 18 0
851 33 0
851 -18 0
13 17 16 15 14 12 11 -849 -454 -848 -566 -565 -449 -847 -846 850 0
849 18 0
849 9 0
848 5 0
848 -18 0
847 18 0
847 23 0
846 20 0
846 -18 0
-844 -396 -773 -395 -837 845 0
844 -840 0
844 -843 0
-388 -387 -386 -842 -841 843 0
842 -769 0
842 -169 0
842 -115 0
842 -116 0
842 -117 0
842 -118 0
841 -384 0
841 -272 0
841 -115 0
841 -116 0
841 -117 0
841 -118 0
-404 -403 -402 -839 -838 840 0
839 -400 0
839 -192 0
839 -115 0
839 -116 0
839 -117 0
839 -118 0
838 -774 0
838 -231 0
838 -115 0
838 -116 0
838 -117 0
838 -118 0
837 -836 0
837 -115 0
837 -116 0
837 -117 0
837 -118 0
-835 -830 -825 836 0
835 -831 0
835 -832 0
835 -138 0
835 -139 0
835 -250 0
835 -251 0
835 -833 0
835 -834 0
835 -44 0
835 -43 0
835 -42 0
835 -41 0
835 -40 0
835 -39 0
835 -38 0
-10 -18 834 0
-7 18 833 0
-18 -49 832 0
18 -46 831 0
830 -129 0
830 -826 0
830 -242 0
830 -243 0
830 -827 0
830 -828 0
830 -829 0
830 -134 0
830 -31 0
830 -30 0
830 -29 0
830 -28 0
830 -27 0
830 -26 0
830 -25 0
-6 18 829 0
-8 -18 828 0
-18 -36 827 0
-33 18 826 0
825 -821 0
825 -822 0
825 -120 0
825 -236 0
825 -237 0
825 -823 0
825 -125 0
825 -824 0
825 -17 0
825 -16 0
825 -15 0
825 -14 0
825 -13 0
825 -12 0
825 -11 0
-9 -18 824 0
-5 18 823 0
-18 -23 822 0
-20 18 821 0
4 2 1 -746 -819 820 0
819 -782 0
819 -818 0
18 54 53 56 55 61 52 51 65 64 63 62 60 59 58 57 -817 818 0
817 -799 0
817 -705 0
817 -808 0
817 -816 0
-815 -812 816 0
815 -659 0
815 -660 0
815 -813 0
815 -814 0
815 -661 0
-447 -446 -445 -444 -618 -683 814 0
-447 -446 -445 -444 -498 -800 813 0
812 -810 0
812 -811 0
812 -725 0
812 -726 0
812 -727 0
-447 -446 -445 -444 -584 -733 811 0
-447 -446 -445 -444 -543 -809 810 0
809 -735 0
809 -736 0
809 -737 0
-807 -803 808 0
807 -805 0
807 -806 0
807 -710 0
807 -711 0
807 -712 0
-447 -446 -445 -444 -718 -637 806 0
-447 -446 -445 -444 -804 -543 805 0
804 -720 0
804 -721 0
804 -722 0
803 -801 0
803 -802 0
803 -680 0
803 -681 0
803 -682 0
-447 -446 -445 -444 -476 -662 802 0
-447 -446 -445 -444 -560 -800 801 0
800 -701 0
800 -702 0
800 -703 0
-447 -446 -445 -444 -798 799 0
798 -787 0
798 -792 0
798 -797 0
38 43 73 77 44 42 41 -539 -538 -796 -795 -794 -793 -515 -514 797 0
796 49 0
796 55 0
795 46 0
795 -55 0
794 55 0
794 10 0
793 -55 0
793 7 0
25 28 31 30 29 76 70 -791 -531 -530 -790 -789 -788 -508 -507 792 0
791 -55 0
791 6 0
790 55 0
790 36 0
789 -55 0
789 33 0
788 55 0
788 8 0
17 16 15 14 11 67 75 -786 -785 -525 -524 -784 -783 -501 -500 787 0
786 55 0
786 9 0
785 -55 0
785 5 0
784 55 0
784 23 0
783 -55 0
783 20 0
-781 -396 -773 -376 -764 782 0
781 -777 0
781 -780 0
-332 -779 -778 -331 -330 780 0
779 -354 0
779 -289 0
779 -115 0
779 -116 0
779 -117 0
779 -118 0
778 -765 0
778 -169 0
778 -115 0
778 -116 0
778 -117 0
778 -118 0
-399 -398 -397 -776 -775 777 0
776 -405 0
776 -255 0
776 -115 0
776 -116 0
776 -117 0
776 -118 0
775 -774 0
775 -214 0
775 -115 0
775 -116 0
775 -117 0
775 -118 0
-409 -408 -407 774 0
773 -768 0
773 -772 0
-383 -382 -381 -771 -770 772 0
771 -308 0
771 -389 0
771 -115 0
771 -116 0
771 -117 0
771 -118 0
770 -214 0
770 -769 0
770 -115 0
770 -116 0
770 -117 0
770 -118 0
-393 -392 -391 769 0
-353 -352 -351 -767 -766 768 0
767 -333 0
767 -147 0
767 -115 0
767 -116 0
767 -117 0
767 -118 0
766 -765 0
766 -231 0
766 -115 0
766 -116 0
766 -117 0
766 -118 0
-374 -373 -372 765 0
764 -763 0
764 -115 0
764 -116 0
764 -117 0
764 -118 0
-762 -757 -752 763 0
762 -185 0
762 -186 0
762 -758 0
762 -759 0
762 -760 0
762 -761 0
762 -209 0
762 -210 0
762 -77 0
762 -73 0
762 -44 0
762 -43 0
762 -42 0
762 -41 0
762 -38 0
-49 -55 761 0
-46 55 760 0
-10 -55 759 0
-7 55 758 0
757 -178 0
757 -179 0
757 -753 0
757 -754 0
757 -755 0
757 -201 0
757 -202 0
757 -756 0
757 -76 0
757 -70 0
757 -31 0
757 -30 0
757 -29 0
757 -28 0
757 -25 0
-6 55 756 0
-36 -55 755 0
-33 55 754 0
-8 -55 753 0
752 -171 0
752 -172 0
752 -748 0
752 -749 0
752 -195 0
752 -196 0
752 -750 0
752 -751 0
752 -75 0
752 -67 0
752 -17 0
752 -16 0
752 -15 0
752 -14 0
752 -11 0
-9 -55 751 0
-5 55 750 0
-23 -55 749 0
-20 55 748 0
4 3 1 -746 -745 747 0
746 -4 0
746 -3 0
746 -2 0
746 -1 0
745 -415 0
745 -744 0
18 54 53 56 55 61 52 51 65 64 63 62 60 59 58 57 -743 744 0
743 -448 0
743 -705 0
743 -724 0
743 -742 0
-741 -738 742 0
741 -739 0
741 -740 0
741 -602 0
741 -619 0
741 -620 0
-447 -446 -445 -444 -601 -706 740 0
-447 -446 -445 -444 -618 -562 739 0
738 -729 0
738 -734 0
738 -735 0
738 -736 0
738 -737 0
-447 -446 -445 -444 -678 737 0
-447 -446 -445 -444 -699 -476 736 0
-447 -446 -445 -444 -658 -637 735 0
-447 -446 -445 -444 -699 -733 734 0
733 -730 0
733 -731 0
733 -732 0
-447 -446 -445 -444 -476 732 0
-447 -446 -445 -444 -637 -521 731 0
-447 -446 -445 -444 -678 -560 730 0
-447 -446 -445 -444 -658 -728 729 0
728 -725 0
728 -726 0
728 -727 0
-447 -446 -445 -444 -637 727 0
-447 -446 -445 -444 -584 -476 726 0
-447 -446 -445 -444 -678 -543 725 0
-723 -709 724 0
723 -714 0
723 -719 0
723 -720 0
723 -721 0
723 -722 0
-447 -446 -445 -444 -699 722 0
-447 -446 -445 -444 -618 -678 721 0
-447 -446 -445 -444 -584 -658 720 0
-447 -446 -445 -444 -718 -678 719 0
718 -715 0
718 -716 0
718 -717 0
-447 -446 -445 -444 -618 717 0
-447 -446 -445 -444 -584 -601 716 0
-447 -446 -445 -444 -498 -699 715 0
-447 -446 -445 -444 -658 -713 714 0
713 -710 0
713 -711 0
713 -712 0
-447 -446 -445 -444 -584 712 0
-447 -446 -445 -444 -618 -637 711 0
-447 -446 -445 -444 -699 -543 710 0
709 -707 0
709 -708 0
709 -499 0
709 -544 0
709 -561 0
-447 -446 -445 -444 -476 -621 708 0
-447 -446 -445 -444 -521 -706 707 0
706 -639 0
706 -640 0
706 -641 0
-704 -642 705 0
704 -679 0
704 -700 0
704 -701 0
704 -702 0
704 -703 0
-447 -446 -445 -444 -658 703 0
-447 -446 -445 -444 -699 -521 702 0
-447 -446 -445 -444 -601 -678 701 0
-447 -446 -445 -444 -699 -683 700 0
699 -688 0
699 -693 0
699 -698 0
43 40 72 77 44 42 41 -697 -696 -580 -579 -695 -694 -436 -435 698 0
697 58 0
697 10 0
696 -58 0
696 7 0
695 49 0
695 52 0
694 46 0
694 -52 0
28 31 30 29 27 76 69 -692 -572 -571 -691 -690 -689 -429 -428 693 0
692 -52 0
692 33 0
691 58 0
691 8 0
690 52 0
690 36 0
689 -58 0
689 6 0
13 17 16 15 14 66 75 -687 -686 -685 -566 -565 -684 -420 -419 688 0
687 52 0
687 23 0
686 -52 0
686 20 0
685 58 0
685 9 0
684 -58 0
684 5 0
683 -680 0
683 -681 0
683 -682 0
-447 -446 -445 -444 -521 682 0
-447 -446 -445 -444 -601 -476 681 0
-447 -446 -445 -444 -658 -560 680 0
-447 -446 -445 -444 -678 -662 679 0
678 -667 0
678 -672 0
678 -677 0
74 73 72 77 83 44 41 -474 -676 -675 -473 -674 -673 -436 -435 677 0
676 61 0
676 10 0
675 -61 0
675 7 0
674 64 0
674 49 0
673 46 0
673 -64 0
28 31 76 69 71 70 82 -465 -464 -671 -670 -429 -428 -669 -668 672 0
671 64 0
671 36 0
670 -64 0
670 33 0
669 61 0
669 8 0
668 -61 0
668 6 0
17 14 81 68 67 66 75 -456 -455 -666 -665 -420 -419 -664 -663 667 0
666 64 0
666 23 0
665 -64 0
665 20 0
664 61 0
664 9 0
663 -61 0
663 5 0
662 -659 0
662 -660 0
662 -661 0
-447 -446 -445 -444 -601 661 0
-447 -446 -445 -444 -618 -521 660 0
-447 -446 -445 -444 -498 -658 659 0
658 -647 0
658 -652 0
658 -657 0
43 73 72 77 80 42 41 -656 -655 -654 -653 -515 -514 -436 -435 657 0
656 49 0
656 56 0
655 46 0
655 -56 0
654 59 0
654 10 0
653 -59 0
653 7 0
28 30 29 76 69 79 70 -651 -650 -649 -648 -508 -507 -429 -428 652 0
651 56 0
651 36 0
650 -56 0
650 33 0
649 -59 0
649 6 0
648 59 0
648 8 0
16 15 14 67 66 75 78 -646 -645 -644 -643 -501 -500 -420 -419 647 0
646 56 0
646 23 0
645 -56 0
645 20 0
644 59 0
644 9 0
643 -59 0
643 5 0
642 -585 0
642 -638 0
642 -639 0
642 -640 0
642 -641 0
-447 -446 -445 -444 -543 641 0
-447 -446 -445 -444 -584 -560 640 0
-447 -446 -445 -444 -498 -637 639 0
-447 -446 -445 -444 -637 -621 638 0
637 -626 0
637 -631 0
637 -636 0
43 73 72 77 83 44 41 -635 -474 -634 -633 -632 -473 -539 -538 636 0
635 63 0
635 49 0
634 46 0
634 -63 0
633 57 0
633 10 0
632 -57 0
632 7 0
28 31 30 76 69 70 82 -630 -465 -629 -464 -531 -530 -628 -627 631 0
630 63 0
630 36 0
629 -63 0
629 33 0
628 57 0
628 8 0
627 -57 0
627 6 0
17 16 14 81 67 66 75 -625 -456 -624 -455 -525 -524 -623 -622 626 0
625 63 0
625 23 0
624 -63 0
624 20 0
623 57 0
623 9 0
622 -57 0
622 5 0
621 -602 0
621 -619 0
621 -620 0
-447 -446 -445 -444 -498 620 0
-447 -446 -445 -444 -618 -560 619 0
618 -607 0
618 -612 0
618 -617 0
43 40 72 77 86 44 42 -496 -616 -615 -614 -613 -580 -579 -493 617 0
616 62 0
616 10 0
615 -62 0
615 7 0
614 49 0
614 53 0
613 46 0
613 -53 0
31 30 29 27 76 69 85 -489 -611 -610 -609 -608 -572 -571 -485 612 0
611 -53 0
611 33 0
610 -62 0
610 6 0
609 62 0
609 8 0
608 53 0
608 36 0
13 17 16 15 66 75 84 -482 -606 -605 -566 -565 -604 -603 -479 607 0
606 62 0
606 9 0
605 -62 0
605 5 0
604 53 0
604 23 0
603 -53 0
603 20 0
-447 -446 -445 -444 -601 -543 602 0
601 -590 0
601 -595 0
601 -600 0
43 73 72 77 86 44 42 -496 -599 -598 -493 -597 -596 -515 -514 600 0
599 63 0
599 10 0
598 -63 0
598 7 0
597 57 0
597 49 0
596 46 0
596 -57 0
31 30 29 76 69 70 85 -594 -593 -489 -485 -592 -591 -508 -507 595 0
594 -63 0
594 6 0
593 63 0
593 8 0
592 57 0
592 36 0
591 -57 0
591 33 0
17 16 15 67 66 75 84 -589 -588 -482 -501 -479 -587 -586 -500 590 0
589 63 0
589 9 0
588 -63 0
588 5 0
587 57 0
587 23 0
586 -57 0
586 20 0
-447 -446 -445 -444 -584 -562 585 0
584 -569 0
584 -576 0
584 -583 0
43 40 72 77 80 42 41 -582 -581 -539 -538 -580 -579 -578 -577 583 0
582 54 0
582 10 0
581 -54 0
581 7 0
580 50 0
580 18 0
579 47 0
579 -18 0
578 49 0
578 51 0
577 46 0
577 -51 0
28 30 29 27 76 69 79 -575 -574 -573 -531 -530 -572 -571 -570 576 0
575 -54 0
575 6 0
574 54 0
574 8 0
573 -51 0
573 33 0
572 34 0
572 -18 0
571 37 0
571 18 0
570 51 0
570 36 0
13 16 15 14 66 75 78 -568 -567 -525 -524 -566 -565 -564 -563 569 0
568 54 0
568 9 0
567 -54 0
567 5 0
566 18 0
566 24 0
565 21 0
565 -18 0
564 51 0
564 23 0
563 -51 0
563 20 0
562 -499 0
562 -544 0
562 -561 0
-447 -446 -445 -444 -560 561 0
560 -549 0
560 -554 0
560 -559 0
39 43 73 72 44 42 41 -558 -557 -438 -437 -468 -467 -556 -555 559 0
558 52 0
558 10 0
557 -52 0
557 7 0
556 58 0
556 49 0
555 46 0
555 -58 0
28 31 30 29 26 69 70 -463 -553 -552 -431 -430 -458 -551 -550 554 0
553 52 0
553 8 0
552 -52 0
552 6 0
551 58 0
551 36 0
550 -58 0
550 33 0
17 16 15 14 12 67 66 -454 -548 -547 -422 -421 -449 -546 -545 549 0
548 52 0
548 9 0
547 -52 0
547 5 0
546 58 0
546 23 0
545 -58 0
545 20 0
-447 -446 -445 -444 -543 -521 544 0
543 -528 0
543 -535 0
543 -542 0
74 73 72 77 44 42 41 -541 -540 -539 -538 -537 -536 -438 -437 542 0
541 56 0
541 10 0
540 -56 0
540 7 0
539 48 0
539 55 0
538 45 0
538 -55 0
537 59 0
537 49 0
536 46 0
536 -59 0
28 31 29 76 69 71 70 -534 -533 -532 -531 -530 -529 -431 -430 535 0
534 -56 0
534 6 0
533 56 0
533 8 0
532 -59 0
532 33 0
531 55 0
531 35 0
530 -55 0
530 32 0
529 59 0
529 36 0
17 15 14 68 67 66 75 -527 -526 -525 -524 -523 -522 -422 -421 528 0
527 56 0
527 9 0
526 -56 0
526 5 0
525 55 0
525 22 0
524 -55 0
524 19 0
523 59 0
523 23 0
522 -59 0
522 20 0
521 -506 0
521 -513 0
521 -520 0
39 74 73 72 44 42 41 -519 -518 -517 -516 -515 -514 -468 -467 520 0
519 49 0
519 54 0
518 46 0
518 -54 0
517 51 0
517 10 0
516 -51 0
516 7 0
515 50 0
515 55 0
514 47 0
514 -55 0
28 31 29 26 69 71 70 -512 -511 -463 -510 -509 -508 -507 -458 513 0
512 54 0
512 36 0
511 -54 0
511 33 0
510 -51 0
510 6 0
509 51 0
509 8 0
508 55 0
508 37 0
507 -55 0
507 34 0
17 15 14 12 68 67 66 -505 -504 -503 -502 -454 -501 -500 -449 506 0
505 54 0
505 23 0
504 -54 0
504 20 0
503 51 0
503 9 0
502 -51 0
502 5 0
501 55 0
501 24 0
500 -55 0
500 21 0
-447 -446 -445 -444 -498 -476 499 0
498 -483 0
498 -490 0
498 -497 0
43 73 72 77 86 80 42 -496 -495 -494 -493 -492 -491 -438 -437 497 0
496 65 0
496 48 0
495 64 0
495 10 0
494 -64 0
494 7 0
493 45 0
493 -65 0
492 49 0
492 61 0
491 46 0
491 -61 0
30 29 76 69 79 70 85 -489 -488 -487 -486 -485 -484 -431 -430 490 0
489 65 0
489 35 0
488 -61 0
488 33 0
487 -64 0
487 6 0
486 64 0
486 8 0
485 -65 0
485 32 0
484 61 0
484 36 0
16 15 67 66 75 78 84 -482 -481 -480 -479 -478 -477 -422 -421 483 0
482 65 0
482 22 0
481 64 0
481 9 0
480 -64 0
480 5 0
479 -65 0
479 19 0
478 61 0
478 23 0
477 -61 0
477 20 0
476 -457 0
476 -466 0
476 -475 0
39 43 73 72 83 44 41 -474 -473 -472 -471 -470 -469 -468 -467 475 0
474 47 0
474 -65 0
473 65 0
473 50 0
472 53 0
472 10 0
471 -53 0
471 7 0
470 62 0
470 49 0
469 46 0
469 -62 0
468 48 0
468 18 0
467 45 0
467 -18 0
28 31 30 26 69 70 82 -465 -464 -463 -462 -461 -460 -459 -458 466 0
465 -65 0
465 34 0
464 65 0
464 37 0
463 35 0
463 18 0
462 53 0
462 8 0
461 -53 0
461 6 0
460 62 0
460 36 0
459 -62 0
459 33 0
458 32 0
458 -18 0
17 16 14 12 81 67 66 -456 -455 -454 -453 -452 -451 -450 -449 457 0
456 -65 0
456 21 0
455 65 0
455 24 0
454 19 0
454 -18 0
453 53 0
453 9 0
452 -53 0
452 5 0
451 62 0
451 23 0
450 -62 0
450 20 0
449 18 0
449 22 0
-447 -446 -445 -444 -443 448 0
447 6 0
447 -5 0
446 9 0
446 -8 0
445 7 0
445 -6 0
444 8 0
444 -10 0
443 -424 0
443 -433 0
443 -442 0
38 43 73 77 44 42 41 -441 -440 -439 -438 -437 -436 -435 -434 442 0
441 60 0
441 49 0
440 60 0
440 10 0
439 -60 0
439 7 0
438 60 0
438 50 0
437 47 0
437 -60 0
436 60 0
436 48 0
435 45 0
435 -60 0
434 46 0
434 -60 0
25 28 31 30 29 76 70 -432 -431 -430 -429 -428 -427 -426 -425 433 0
432 60 0
432 8 0
431 60 0
431 37 0
430 -60 0
430 34 0
429 60 0
429 35 0
428 -60 0
428 32 0
427 60 0
427 36 0
426 -60 0
426 33 0
425 -60 0
425 6 0
17 16 15 14 11 67 75 -423 -422 -421 -420 -419 -418 -417 -416 424 0
423 60 0
423 9 0
422 60 0
422 24 0
421 -60 0
421 21 0
420 60 0
420 22 0
419 -60 0
419 19 0
418 60 0
418 23 0
417 -60 0
417 20 0
416 -60 0
416 5 0
-414 -396 -395 -376 -119 415 0
414 -410 0
414 -413 0
-291 -290 -273 -412 -411 413 0
412 -377 0
412 -272 0
412 -115 0
412 -116 0
412 -117 0
412 -118 0
411 -233 0
411 -289 0
411 -115 0
411 -116 0
411 -117 0
411 -118 0
-409 -408 -407 -406 -401 410 0
409 -349 0
409 -115 0
409 -116 0
409 -117 0
409 -118 0
408 -147 0
408 -370 0
408 -115 0
408 -116 0
408 -117 0
408 -118 0
407 -308 0
407 -329 0
407 -115 0
407 -116 0
407 -117 0
407 -118 0
406 -405 0
406 -370 0
406 -115 0
406 -116 0
406 -117 0
406 -118 0
-404 -403 -402 405 0
404 -147 0
404 -115 0
404 -116 0
404 -117 0
404 -118 0
403 -192 0
403 -308 0
403 -115 0
403 -116 0
403 -117 0
403 -118 0
402 -231 0
402 -349 0
402 -115 0
402 -116 0
402 -117 0
402 -118 0
401 -400 0
401 -329 0
401 -115 0
401 -116 0
401 -117 0
401 -118 0
-399 -398 -397 400 0
399 -308 0
399 -115 0
399 -116 0
399 -117 0
399 -118 0
398 -147 0
398 -255 0
398 -115 0
398 -116 0
398 -117 0
398 -118 0
397 -214 0
397 -349 0
397 -115 0
397 -116 0
397 -117 0
397 -118 0
396 -65 0
396 -64 0
396 -63 0
396 -62 0
396 -61 0
396 -60 0
396 -59 0
396 -58 0
396 -57 0
396 -56 0
396 -55 0
396 -54 0
396 -53 0
396 -52 0
396 -51 0
396 -18 0
395 -380 0
395 -394 0
-393 -392 -391 -390 -385 394 0
393 -370 0
393 -115 0
393 -116 0
393 -117 0
393 -118 0
392 -349 0
392 -289 0
392 -115 0
392 -116 0
392 -117 0
392 -118 0
391 -329 0
391 -255 0
391 -115 0
391 -116 0
391 -117 0
391 -118 0
390 -349 0
390 -389 0
390 -115 0
390 -116 0
390 -117 0
390 -118 0
-388 -387 -386 389 0
388 -289 0
388 -115 0
388 -116 0
388 -117 0
388 -118 0
387 -272 0
387 -255 0
387 -115 0
387 -116 0
387 -117 0
387 -118 0
386 -370 0
386 -169 0
386 -115 0
386 -116 0
386 -117 0
386 -118 0
385 -384 0
385 -329 0
385 -115 0
385 -116 0
385 -117 0
385 -118 0
-383 -382 -381 384 0
383 -255 0
383 -115 0
383 -116 0
383 -117 0
383 -118 0
382 -308 0
382 -289 0
382 -115 0
382 -116 0
382 -117 0
382 -118 0
381 -214 0
381 -370 0
381 -115 0
381 -116 0
381 -117 0
381 -118 0
-232 -215 -170 -379 -378 380 0
379 -292 0
379 -147 0
379 -115 0
379 -116 0
379 -117 0
379 -118 0
378 -377 0
378 -192 0
378 -115 0
378 -116 0
378 -117 0
378 -118 0
-312 -311 -310 377 0
376 -313 0
376 -375 0
-374 -373 -372 -371 -350 375 0
374 -329 0
374 -115 0
374 -116 0
374 -117 0
374 -118 0
373 -192 0
373 -370 0
373 -115 0
373 -116 0
373 -117 0
373 -118 0
372 -349 0
372 -272 0
372 -115 0
372 -116 0
372 -117 0
372 -118 0
371 -354 0
371 -370 0
371 -115 0
371 -116 0
371 -117 0
371 -118 0
-369 -364 -359 370 0
369 -106 0
369 -107 0
369 -365 0
369 -366 0
369 -250 0
369 -251 0
369 -367 0
369 -368 0
369 -77 0
369 -72 0
369 -44 0
369 -43 0
369 -42 0
369 -41 0
369 -40 0
-10 -58 368 0
-7 58 367 0
-49 -52 366 0
-46 52 365 0
364 -99 0
364 -100 0
364 -360 0
364 -361 0
364 -362 0
364 -242 0
364 -243 0
364 -363 0
364 -76 0
364 -69 0
364 -31 0
364 -30 0
364 -29 0
364 -28 0
364 -27 0
-33 52 363 0
-8 -58 362 0
-36 -52 361 0
-6 58 360 0
359 -90 0
359 -91 0
359 -355 0
359 -236 0
359 -237 0
359 -356 0
359 -357 0
359 -358 0
359 -75 0
359 -66 0
359 -17 0
359 -16 0
359 -15 0
359 -14 0
359 -13 0
-20 52 358 0
-23 -52 357 0
-9 -58 356 0
-5 58 355 0
-353 -352 -351 354 0
353 -192 0
353 -115 0
353 -116 0
353 -117 0
353 -118 0
352 -147 0
352 -272 0
352 -115 0
352 -116 0
352 -117 0
352 -118 0
351 -231 0
351 -329 0
351 -115 0
351 -116 0
351 -117 0
351 -118 0
350 -333 0
350 -349 0
350 -115 0
350 -116 0
350 -117 0
350 -118 0
-348 -343 -338 349 0
348 -106 0
348 -107 0
348 -344 0
348 -345 0
348 -144 0
348 -346 0
348 -347 0
348 -145 0
348 -83 0
348 -77 0
348 -74 0
348 -73 0
348 -72 0
348 -44 0
348 -41 0
-10 -61 347 0
-7 61 346 0
-49 -64 345 0
-46 64 344 0
343 -339 0
343 -340 0
343 -99 0
343 -100 0
343 -341 0
343 -342 0
343 -135 0
343 -136 0
343 -82 0
343 -76 0
343 -71 0
343 -70 0
343 -69 0
343 -31 0
343 -28 0
-36 -64 342 0
-33 64 341 0
-8 -61 340 0
-6 61 339 0
338 -334 0
338 -335 0
338 -90 0
338 -91 0
338 -336 0
338 -337 0
338 -126 0
338 -127 0
338 -81 0
338 -75 0
338 -68 0
338 -67 0
338 -66 0
338 -17 0
338 -14 0
-23 -64 337 0
-20 64 336 0
-9 -61 335 0
-5 61 334 0
-332 -331 -330 333 0
332 -272 0
332 -115 0
332 -116 0
332 -117 0
332 -118 0
331 -192 0
331 -289 0
331 -115 0
331 -116 0
331 -117 0
331 -118 0
330 -329 0
330 -169 0
330 -115 0
330 -116 0
330 -117 0
330 -118 0
-328 -323 -318 329 0
328 -106 0
328 -107 0
328 -185 0
328 -186 0
328 -324 0
328 -325 0
328 -326 0
328 -327 0
328 -80 0
328 -77 0
328 -73 0
328 -72 0
328 -43 0
328 -42 0
328 -41 0
-49 -56 327 0
-46 56 326 0
-7 59 325 0
-10 -59 324 0
323 -99 0
323 -100 0
323 -178 0
323 -179 0
323 -319 0
323 -320 0
323 -321 0
323 -322 0
323 -79 0
323 -76 0
323 -70 0
323 -69 0
323 -30 0
323 -29 0
323 -28 0
-36 -56 322 0
-33 56 321 0
-6 59 320 0
-8 -59 319 0
318 -90 0
318 -91 0
318 -171 0
318 -172 0
318 -314 0
318 -315 0
318 -316 0
318 -317 0
318 -78 0
318 -75 0
318 -67 0
318 -66 0
318 -16 0
318 -15 0
318 -14 0
-23 -56 317 0
-20 56 316 0
-9 -59 315 0
-5 59 314 0
-312 -311 -310 -309 -256 313 0
312 -214 0
312 -115 0
312 -116 0
312 -117 0
312 -118 0
311 -231 0
311 -255 0
311 -115 0
311 -116 0
311 -117 0
311 -118 0
310 -308 0
310 -169 0
310 -115 0
310 -116 0
310 -117 0
310 -118 0
309 -292 0
309 -308 0
309 -115 0
309 -116 0
309 -117 0
309 -118 0
-307 -302 -297 308 0
307 -209 0
307 -210 0
307 -144 0
307 -303 0
307 -304 0
307 -305 0
307 -145 0
307 -306 0
307 -83 0
307 -77 0
307 -73 0
307 -72 0
307 -44 0
307 -43 0
307 -41 0
-49 -63 306 0
-46 63 305 0
-10 -57 304 0
-7 57 303 0
302 -298 0
302 -299 0
302 -201 0
302 -202 0
302 -135 0
302 -300 0
302 -136 0
302 -301 0
302 -82 0
302 -76 0
302 -70 0
302 -69 0
302 -31 0
302 -30 0
302 -28 0
-36 -63 301 0
-33 63 300 0
-8 -57 299 0
-6 57 298 0
297 -293 0
297 -294 0
297 -195 0
297 -196 0
297 -126 0
297 -295 0
297 -127 0
297 -296 0
297 -81 0
297 -75 0
297 -67 0
297 -66 0
297 -17 0
297 -16 0
297 -14 0
-23 -63 296 0
-20 63 295 0
-9 -57 294 0
-5 57 293 0
-291 -290 -273 292 0
291 -169 0
291 -115 0
291 -116 0
291 -117 0
291 -118 0
290 -231 0
290 -289 0
290 -115 0
290 -116 0
290 -117 0
290 -118 0
-288 -283 -278 289 0
288 -164 0
288 -250 0
288 -251 0
288 -284 0
288 -285 0
288 -286 0
288 -287 0
288 -167 0
288 -86 0
288 -77 0
288 -72 0
288 -44 0
288 -43 0
288 -42 0
288 -40 0
-10 -62 287 0
-7 62 286 0
-49 -53 285 0
-46 53 284 0
283 -156 0
283 -242 0
283 -243 0
283 -279 0
283 -280 0
283 -281 0
283 -282 0
283 -160 0
283 -85 0
283 -76 0
283 -69 0
283 -31 0
283 -30 0
283 -29 0
283 -27 0
-33 53 282 0
-6 62 281 0
-8 -62 280 0
-36 -53 279 0
278 -150 0
278 -274 0
278 -275 0
278 -236 0
278 -237 0
278 -276 0
278 -277 0
278 -153 0
278 -84 0
278 -75 0
278 -66 0
278 -17 0
278 -16 0
278 -15 0
278 -13 0
-9 -62 277 0
-5 62 276 0
-23 -53 275 0
-20 53 274 0
273 -214 0
273 -272 0
273 -115 0
273 -116 0
273 -117 0
273 -118 0
-271 -266 -261 272 0
271 -185 0
271 -186 0
271 -267 0
271 -268 0
271 -164 0
271 -269 0
271 -270 0
271 -167 0
271 -86 0
271 -77 0
271 -73 0
271 -72 0
271 -44 0
271 -43 0
271 -42 0
-10 -63 270 0
-7 63 269 0
-49 -57 268 0
-46 57 267 0
266 -178 0
266 -179 0
266 -262 0
266 -263 0
266 -156 0
266 -160 0
266 -264 0
266 -265 0
266 -85 0
266 -76 0
266 -70 0
266 -69 0
266 -31 0
266 -30 0
266 -29 0
-6 63 265 0
-8 -63 264 0
-36 -57 263 0
-33 57 262 0
261 -171 0
261 -257 0
261 -258 0
261 -150 0
261 -172 0
261 -153 0
261 -259 0
261 -260 0
261 -84 0
261 -75 0
261 -67 0
261 -66 0
261 -17 0
261 -16 0
261 -15 0
-9 -63 260 0
-5 63 259 0
-23 -57 258 0
-20 57 257 0
256 -233 0
256 -255 0
256 -115 0
256 -116 0
256 -117 0
256 -118 0
-254 -247 -240 255 0
254 -248 0
254 -249 0
254 -250 0
254 -251 0
254 -209 0
254 -210 0
254 -252 0
254 -253 0
254 -80 0
254 -77 0
254 -72 0
254 -43 0
254 -42 0
254 -41 0
254 -40 0
-7 54 253 0
-10 -54 252 0
-18 -50 251 0
18 -47 250 0
-49 -51 249 0
-46 51 248 0
247 -241 0
247 -242 0
247 -243 0
247 -201 0
247 -202 0
247 -244 0
247 -245 0
247 -246 0
247 -79 0
247 -76 0
247 -69 0
247 -30 0
247 -29 0
247 -28 0
247 -27 0
-6 54 246 0
-8 -54 245 0
-33 51 244 0
-34 18 243 0
-18 -37 242 0
-36 -51 241 0
240 -234 0
240 -235 0
240 -236 0
240 -237 0
240 -195 0
240 -196 0
240 -238 0
240 -239 0
240 -78 0
240 -75 0
240 -66 0
240 -16 0
240 -15 0
240 -14 0
240 -13 0
-9 -54 239 0
-5 54 238 0
-18 -24 237 0
-21 18 236 0
-23 -51 235 0
-20 51 234 0
-232 -215 -170 233 0
232 -231 0
232 -115 0
232 -116 0
232 -117 0
232 -118 0
-230 -225 -220 231 0
230 -226 0
230 -227 0
230 -138 0
230 -139 0
230 -108 0
230 -109 0
230 -228 0
230 -229 0
230 -73 0
230 -72 0
230 -44 0
230 -43 0
230 -42 0
230 -41 0
230 -39 0
-7 52 229 0
-10 -52 228 0
-49 -58 227 0
-46 58 226 0
225 -221 0
225 -222 0
225 -129 0
225 -101 0
225 -102 0
225 -223 0
225 -224 0
225 -134 0
225 -70 0
225 -69 0
225 -31 0
225 -30 0
225 -29 0
225 -28 0
225 -26 0
-6 52 224 0
-8 -52 223 0
-36 -58 222 0
-33 58 221 0
220 -216 0
220 -217 0
220 -120 0
220 -92 0
220 -93 0
220 -218 0
220 -219 0
220 -125 0
220 -67 0
220 -66 0
220 -17 0
220 -16 0
220 -15 0
220 -14 0
220 -12 0
-5 52 219 0
-9 -52 218 0
-23 -58 217 0
-20 58 216 0
215 -192 0
215 -214 0
215 -115 0
215 -116 0
215 -117 0
215 -118 0
-213 -206 -199 214 0
213 -108 0
213 -109 0
213 -207 0
213 -208 0
213 -209 0
213 -210 0
213 -211 0
213 -212 0
213 -77 0
213 -74 0
213 -73 0
213 -72 0
213 -44 0
213 -42 0
213 -41 0
-10 -56 212 0
-7 56 211 0
-48 -55 210 0
-45 55 209 0
-49 -59 208 0
-46 59 207 0
206 -101 0
206 -102 0
206 -200 0
206 -201 0
206 -202 0
206 -203 0
206 -204 0
206 -205 0
206 -76 0
206 -71 0
206 -70 0
206 -69 0
206 -31 0
206 -29 0
206 -28 0
-6 56 205 0
-8 -56 204 0
-33 59 203 0
-35 -55 202 0
-32 55 201 0
-36 -59 200 0
199 -92 0
199 -93 0
199 -193 0
199 -194 0
199 -195 0
199 -196 0
199 -197 0
199 -198 0
199 -75 0
199 -68 0
199 -67 0
199 -66 0
199 -17 0
199 -15 0
199 -14 0
-9 -56 198 0
-5 56 197 0
-22 -55 196 0
-19 55 195 0
-23 -59 194 0
-20 59 193 0
-191 -184 -177 192 0
191 -138 0
191 -139 0
191 -185 0
191 -186 0
191 -187 0
191 -188 0
191 -189 0
191 -190 0
191 -74 0
191 -73 0
191 -72 0
191 -44 0
191 -42 0
191 -41 0
191 -39 0
-49 -54 190 0
-46 54 189 0
-7 51 188 0
-10 -51 187 0
-50 -55 186 0
-47 55 185 0
184 -129 0
184 -178 0
184 -179 0
184 -180 0
184 -181 0
184 -134 0
184 -182 0
184 -183 0
184 -71 0
184 -70 0
184 -69 0
184 -31 0
184 -29 0
184 -28 0
184 -26 0
-36 -54 183 0
-33 54 182 0
-8 -51 181 0
-6 51 180 0
-37 -55 179 0
-34 55 178 0
177 -120 0
177 -171 0
177 -172 0
177 -125 0
177 -173 0
177 -174 0
177 -175 0
177 -176 0
177 -68 0
177 -67 0
177 -66 0
177 -17 0
177 -15 0
177 -14 0
177 -12 0
-23 -54 176 0
-20 54 175 0
-5 51 174 0
-9 -51 173 0
-24 -55 172 0
-21 55 171 0
170 -147 0
170 -169 0
170 -115 0
170 -116 0
170 -117 0
170 -118 0
-168 -161 -154 169 0
168 -108 0
168 -109 0
168 -162 0
168 -163 0
168 -164 0
168 -165 0
168 -166 0
168 -167 0
168 -86 0
168 -80 0
168 -77 0
168 -73 0
168 -72 0
168 -43 0
168 -42 0
-48 -65 167 0
-10 -64 166 0
-7 64 165 0
-45 65 164 0
-49 -61 163 0
-46 61 162 0
161 -101 0
161 -102 0
161 -155 0
161 -156 0
161 -157 0
161 -158 0
161 -159 0
161 -160 0
161 -85 0
161 -79 0
161 -76 0
161 -70 0
161 -69 0
161 -30 0
161 -29 0
-35 -65 160 0
-33 61 159 0
-6 64 158 0
-8 -64 157 0
-32 65 156 0
-36 -61 155 0
154 -92 0
154 -93 0
154 -148 0
154 -149 0
154 -150 0
154 -151 0
154 -152 0
154 -153 0
154 -84 0
154 -78 0
154 -75 0
154 -67 0
154 -66 0
154 -16 0
154 -15 0
-22 -65 153 0
-9 -64 152 0
-5 64 151 0
-19 65 150 0
-23 -61 149 0
-20 61 148 0
-146 -137 -128 147 0
146 -138 0
146 -139 0
146 -140 0
146 -141 0
146 -142 0
146 -143 0
146 -144 0
146 -145 0
146 -83 0
146 -73 0
146 -72 0
146 -44 0
146 -43 0
146 -41 0
146 -39 0
-47 65 145 0
-50 -65 144 0
-7 53 143 0
-10 -53 142 0
-49 -62 141 0
-46 62 140 0
-18 -48 139 0
18 -45 138 0
137 -129 0
137 -130 0
137 -131 0
137 -132 0
137 -133 0
137 -134 0
137 -135 0
137 -136 0
137 -82 0
137 -70 0
137 -69 0
137 -31 0
137 -30 0
137 -28 0
137 -26 0
-34 65 136 0
-37 -65 135 0
-18 -35 134 0
-8 -53 133 0
-6 53 132 0
-36 -62 131 0
-33 62 130 0
-32 18 129 0
128 -120 0
128 -121 0
128 -122 0
128 -123 0
128 -124 0
128 -125 0
128 -126 0
128 -127 0
128 -81 0
128 -67 0
128 -66 0
128 -17 0
128 -16 0
128 -14 0
128 -12 0
-21 65 127 0
-24 -65 126 0
-19 18 125 0
-9 -53 124 0
-5 53 123 0
-23 -62 122 0
-20 62 121 0
-18 -22 120 0
119 -114 0
119 -115 0
119 -116 0
119 -117 0
119 -118 0
-6 5 118 0
-9 8 117 0
-7 6 116 0
-8 10 115 0
-113 -104 -95 114 0
113 -105 0
113 -106 0
113 -107 0
113 -108 0
113 -109 0
113 -110 0
113 -111 0
113 -112 0
113 -77 0
113 -73 0
113 -44 0
113 -43 0
113 -42 0
113 -41 0
113 -38 0
-49 -60 112 0
-10 -60 111 0
-7 60 110 0
-50 -60 109 0
-47 60 108 0
-48 -60 107 0
-45 60 106 0
-46 60 105 0
104 -96 0
104 -97 0
104 -98 0
104 -99 0
104 -100 0
104 -101 0
104 -102 0
104 -103 0
104 -76 0
104 -70 0
104 -31 0
104 -30 0
104 -29 0
104 -28 0
104 -25 0
-8 -60 103 0
-37 -60 102 0
-34 60 101 0
-35 -60 100 0
-32 60 99 0
-36 -60 98 0
-33 60 97 0
-6 60 96 0
95 -87 0
95 -88 0
95 -89 0
95 -90 0
95 -91 0
95 -92 0
95 -93 0
95 -94 0
95 -75 0
95 -67 0
95 -17 0
95 -16 0
95 -15 0
95 -14 0
95 -11 0
-9 -60 94 0
-24 -60 93 0
-21 60 92 0
-22 -60 91 0
-19 60 90 0
-23 -60 89 0
-20 60 88 0
-5 60 87 0
